% Data file generated from RandomInstances/16_0.90_1.col DIMACS file
size = 16;

chi = 11;

adjacency = [|0,1,1,1,1,1,0,0,1,0,1,1,1,1,1,1,
|1,0,1,1,0,1,1,1,1,1,1,1,1,1,1,1,
|1,1,0,1,1,1,0,1,1,1,1,1,1,1,1,1,
|1,1,1,0,0,1,1,1,1,1,1,1,1,1,1,1,
|1,0,1,0,0,1,1,1,1,0,1,1,1,1,1,1,
|1,1,1,1,1,0,1,1,1,1,1,1,1,1,0,1,
|0,1,0,1,1,1,0,1,1,1,1,1,1,1,0,1,
|0,1,1,1,1,1,1,0,1,1,1,1,1,1,0,1,
|1,1,1,1,1,1,1,1,0,1,1,1,1,1,1,1,
|0,1,1,1,0,1,1,1,1,0,1,1,1,1,0,1,
|1,1,1,1,1,1,1,1,1,1,0,1,1,1,1,0,
|1,1,1,1,1,1,1,1,1,1,1,0,1,1,1,1,
|1,1,1,1,1,1,1,1,1,1,1,1,0,1,1,1,
|1,1,1,1,1,1,1,1,1,1,1,1,1,0,1,0,
|1,1,1,1,1,0,0,0,1,0,1,1,1,1,0,1,
|1,1,1,1,1,1,1,1,1,1,0,1,1,0,1,0,
|];